{"Id":null,"Data":{"Id":"6bd61dba-af53-463b-b954-d893f8e2fd65","CounterId":"dedd878a-2eae-4718-9922-dd95c69ecdd4","Timestamp":"2022-09-02T05:38:15.4461625Z","PageSpecificMetrics":null,"Data":2000.0},"Metadata":null}